Normalized Data/p02_10_normalized_splitx10_0.vrp
NAME:p02_10_NORMALIZED_splitx10_
BEST_KNOWN: 0
COMMENT: 0
DIMENSION: 287
CAPACITY: 1000
EDGE_WEIGHT_FORMAT: FUNCTION
EDGE_WEIGHT_TYPE: EXACT_2D
NODE_COORD_SECTION
1 0.00000 0.00000
2 -17 -42
3 -17 -42
4 -48 4
5 -48 4
6 23 36
7 23 36
8 23 36
9 23 36
10 23 36
11 23 36
12 15 -46
13 15 -46
14 15 -46
15 15 -46
16 15 -46
17 15 -46
18 15 -46
19 30 -5
20 30 -5
21 30 -5
22 30 -5
23 -33 -7
24 -33 -7
25 -33 -7
26 -46 11
27 -46 11
28 -46 11
29 -46 11
30 -1 -49
31 -1 -49
32 4 -37
33 4 -37
34 -8 -24
35 -8 -24
36 -8 -24
37 -8 -24
38 -8 -24
39 -8 -24
40 12 -38
41 12 -38
42 12 -38
43 12 -38
44 12 -38
45 25 -26
46 25 -26
47 25 -26
48 14 42
49 14 42
50 14 42
51 14 42
52 19 -34
53 19 -34
54 19 -34
55 21 -21
56 21 -21
57 37 -36
58 37 -36
59 37 -36
60 37 -36
61 37 -36
62 14 4
63 14 4
64 14 4
65 -27 29
66 -27 29
67 -27 29
68 -27 29
69 -27 29
70 -27 29
71 -40 -11
72 -40 -11
73 41 -44
74 41 -44
75 41 -44
76 41 -44
77 41 -44
78 41 -44
79 -40 -49
80 -40 -49
81 -28 -18
82 -28 -18
83 36 -24
84 36 -24
85 36 -24
86 10 -46
87 10 -46
88 10 -46
89 10 -46
90 25 39
91 25 39
92 36 -39
93 36 -39
94 21 16
95 21 16
96 21 16
97 21 16
98 3 -32
99 3 -32
100 3 -32
101 3 -32
102 3 -32
103 -37 -50
104 -37 -50
105 -37 -50
106 -37 -50
107 -32 -32
108 -32 -32
109 -32 -32
110 -32 -32
111 -32 -32
112 -32 -32
113 -47 -48
114 -47 -48
115 -47 -48
116 -47 -48
117 -47 -48
118 -47 -48
119 -47 -48
120 -20 -4
121 -20 -4
122 -20 -4
123 -20 -4
124 -20 -4
125 -20 -4
126 8 -21
127 8 -21
128 8 -21
129 8 -21
130 8 -21
131 11 23
132 11 23
133 11 23
134 11 23
135 11 23
136 11 23
137 11 23
138 43 35
139 43 35
140 43 35
141 43 35
142 43 -6
143 43 -6
144 43 -6
145 41 20
146 41 20
147 41 20
148 41 20
149 41 20
150 4 -4
151 4 -4
152 4 -4
153 4 -4
154 -8 -46
155 -8 -46
156 -8 -46
157 -35 19
158 -35 19
159 3 32
160 3 32
161 3 32
162 3 32
163 5 -27
164 5 -27
165 5 -27
166 5 -27
167 5 -27
168 5 -27
169 15 23
170 15 23
171 15 23
172 15 23
173 14 -11
174 14 -11
175 14 -11
176 14 -11
177 14 -11
178 14 -11
179 14 -11
180 -44 -33
181 -44 -33
182 -44 -33
183 -23 22
184 -23 22
185 -23 22
186 -5 44
187 -5 44
188 7 11
189 7 11
190 7 11
191 44 -1
192 44 -1
193 44 -1
194 44 -1
195 44 -1
196 -42 5
197 -42 5
198 -42 5
199 -42 5
200 -42 5
201 -42 -10
202 -42 -10
203 -42 -10
204 2 42
205 2 42
206 2 42
207 39 28
208 39 28
209 39 28
210 39 28
211 39 28
212 42 35
213 42 35
214 -50 -16
215 -50 -16
216 -50 -16
217 -50 -16
218 32 -22
219 32 -22
220 50 -44
221 50 -44
222 50 -44
223 50 -44
224 50 -44
225 19 -1
226 19 -1
227 19 -1
228 19 -1
229 -16 20
230 -16 20
231 -16 20
232 -16 20
233 -16 20
234 -11 -44
235 -11 -44
236 -11 -44
237 20 -33
238 20 -33
239 20 -33
240 20 -33
241 20 -33
242 -12 -12
243 -12 -12
244 -27 -2
245 -27 -2
246 -27 -2
247 -26 -45
248 -26 -45
249 -26 -45
250 -26 -45
251 -26 -45
252 -41 -23
253 -41 -23
254 -28 -12
255 -28 -12
256 32 16
257 32 16
258 32 16
259 45 -14
260 45 -14
261 28 46
262 28 46
263 -32 -29
264 -32 -29
265 -32 -29
266 15 48
267 15 48
268 -48 -2
269 -48 -2
270 -48 -2
271 -48 -2
272 -48 -2
273 -48 -2
274 -44 48
275 -44 48
276 -44 48
277 -44 48
278 -44 48
279 -44 48
280 7 40
281 7 40
282 7 40
283 7 40
284 7 40
285 -40 5
286 -40 5
287 -40 5
DEMAND_SECTION
1 0
2 200
3 100
4 200
5 200
6 200
7 200
8 10
9 10
10 10
11 10
12 200
13 200
14 50
15 10
16 10
17 10
18 10
19 200
20 10
21 10
22 10
23 200
24 200
25 50
26 200
27 200
28 10
29 10
30 200
31 50
32 200
33 100
34 200
35 100
36 50
37 10
38 10
39 10
40 200
41 200
42 50
43 10
44 10
45 200
46 200
47 50
48 100
49 50
50 10
51 10
52 200
53 100
54 10
55 100
56 50
57 200
58 100
59 50
60 10
61 10
62 100
63 50
64 10
65 100
66 50
67 10
68 10
69 10
70 10
71 200
72 10
73 200
74 100
75 10
76 10
77 10
78 10
79 200
80 200
81 200
82 200
83 200
84 200
85 10
86 100
87 50
88 10
89 10
90 100
91 50
92 200
93 200
94 200
95 10
96 10
97 10
98 200
99 100
100 50
101 10
102 10
103 200
104 50
105 10
106 10
107 200
108 100
109 50
110 10
111 10
112 10
113 200
114 100
115 50
116 10
117 10
118 10
119 10
120 200
121 100
122 50
123 10
124 10
125 10
126 100
127 10
128 10
129 10
130 10
131 200
132 100
133 50
134 10
135 10
136 10
137 10
138 200
139 100
140 50
141 10
142 200
143 200
144 50
145 200
146 200
147 10
148 10
149 10
150 200
151 50
152 10
153 10
154 200
155 100
156 10
157 200
158 10
159 100
160 50
161 10
162 10
163 200
164 200
165 10
166 10
167 10
168 10
169 200
170 100
171 10
172 10
173 200
174 200
175 50
176 10
177 10
178 10
179 10
180 100
181 50
182 10
183 200
184 100
185 50
186 200
187 10
188 200
189 200
190 10
191 200
192 100
193 10
194 10
195 10
196 200
197 10
198 10
199 10
200 10
201 200
202 100
203 50
204 200
205 200
206 50
207 200
208 200
209 10
210 10
211 10
212 200
213 200
214 100
215 50
216 10
217 10
218 200
219 50
220 200
221 50
222 10
223 10
224 10
225 200
226 200
227 10
228 10
229 200
230 100
231 50
232 10
233 10
234 100
235 10
236 10
237 200
238 100
239 10
240 10
241 10
242 200
243 50
244 200
245 100
246 50
247 100
248 50
249 10
250 10
251 10
252 200
253 50
254 100
255 50
256 200
257 200
258 50
259 200
260 100
261 200
262 100
263 200
264 200
265 50
266 200
267 200
268 200
269 200
270 10
271 10
272 10
273 10
274 200
275 100
276 50
277 10
278 10
279 10
280 200
281 100
282 50
283 10
284 10
285 200
286 100
287 50
DEPOT_SECTION
1
-1
EOF