Normalized Data/p02_10_normalized_splitx10_0.sol
286 -1 2 249 248 250 247 246 104 102 103 105 108 106 -4 3 196 195 199 198 197 284 285 286 -18 19 20 21 142 141 143 259 258 -22 23 24 254 253 80 81 -28 27 26 25 157 156 184 182 183 -32 31 30 29 153 155 154 234 233 235 36 38 -37 35 33 34 97 167 166 163 164 165 162 -41 42 43 39 40 51 239 237 238 240 236 -45 72 75 76 73 74 77 220 223 221 219 222 57 58 59 -46 44 60 56 91 92 53 52 -63 61 62 257 255 256 94 93 95 96 -64 69 65 66 68 67 274 278 275 273 276 277 228 232 231 230 229 -70 71 202 201 200 269 270 267 272 268 271 -100 99 98 101 88 87 85 86 13 15 14 12 16 11 17 125 126 128 127 129 -109 110 79 78 118 116 114 113 117 112 115 179 181 180 -130 132 135 131 170 171 168 187 188 189 -133 134 136 47 50 48 49 265 266 281 283 282 280 279 -149 173 172 225 224 -152 150 151 55 54 83 84 82 217 218 176 178 174 175 177 -158 159 161 160 203 205 204 186 185 -169 6 8 10 7 9 5 90 89 260 261 -206 209 210 208 138 140 137 139 212 211 -207 146 144 145 147 148 190 193 192 194 191 226 227 -214 215 216 213 252 251 107 111 262 263 264 -242 241 124 121 122 123 120 119 243 244 245 0 





OBJ=
2490.261
BEST_KNOWN=
0.000